NAME: st70.tsp
TYPE: TSP
COMMENT: Solution
DIMENSION: 70
TOUR_SECTION
1
36
23
38
69
31
13
29
70
35
15
57
24
63
22
59
66
53
5
10
52
62
9
40
61
39
45
25
46
27
68
44
30
20
14
3
32
8
28
26
49
55
19
7
2
4
18
42
6
41
43
17
21
34
12
60
33
54
67
48
11
64
65
56
51
50
58
37
47
16
-1
EOF